WARNING: for repeatability, setting FPU to use double precision
============================[ Problem Statistics ]=============================
|                                                                             |
|  Number of variables:        231522                                         |
|  Number of clauses:          536846                                         |
|  Parse time:                   0.30 s                                       |
|                                                                             |
============================[ Search Statistics ]==============================
| Conflicts |          ORIGINAL         |          LEARNT          | Progress |
|           |    Vars  Clauses Literals |    Limit  Clauses Lit/Cl |          |
===============================================================================
|       100 |  128014   514725  1156464 |   188732      100     10 | 44.708 % |
|       250 |  128014   514725  1156464 |   207605      250     28 | 44.708 % |
|       475 |  128014   514725  1156464 |   228366      475     25 | 44.708 % |
===============================================================================
restarts              : 6
conflicts             : 772            (825 /sec)
decisions             : 14000          (0.00 % random) (14956 /sec)
propagations          : 2544980        (2718827 /sec)
conflict literals     : 22490          (5.58 % deleted)
Memory used           : 57.00 MB
CPU time              : 0.936058 s

SATISFIABLE
